NAME: Methamidophos
PRECURSORMZ: 142.008613
PRECURSORTYPE: [M+H]+
INSTRUMENTTYPE: 
INSTRUMENT: 
Authors: 
License: 
SMILES: 
INCHI: 
INCHIKEY: 
COLLISIONENERGY: 
FORMULA: C2H8NO2PS
RETENTIONTIME: 1.9663833333333334
IONMODE: Positive
MASSBANKACCESSION: 
Links: 
Comment: CH4NO2P C2H5O2PS H2NOP 
Num Peaks: 3
94.005241 1.0
124.982063 0.310731441
63.994677 0.30699414

NAME: Pymetrozin
PRECURSORMZ: 218.103636
PRECURSORTYPE: [M+H]+
INSTRUMENTTYPE: 
INSTRUMENT: 
Authors: 
License: 
SMILES: 
INCHI: 
INCHIKEY: 
COLLISIONENERGY: 
FORMULA: C10H11N5O
RETENTIONTIME: 2.4632833333333335
IONMODE: Positive
MASSBANKACCESSION: 
Links: 
Comment: C6H4N2 C5H3N C5H4N 
Num Peaks: 3
105.044725 1.0
78.033826 0.077665567
79.041651 0.064585663

NAME: Sulfadiazole
PRECURSORMZ: 265.042359
PRECURSORTYPE: [M+H]+
INSTRUMENTTYPE: 
INSTRUMENT: 
Authors: 
License: 
SMILES: 
INCHI: 
INCHIKEY: 
COLLISIONENERGY: 
FORMULA: C7H12N4O3S2
RETENTIONTIME: 4.444283333333333
IONMODE: Positive
MASSBANKACCESSION: 
Links: 
Comment: C5H9N3O2S2 C3H3N3OS2 C2H4N2 
Num Peaks: 3
208.020895 1.0
161.97903 0.688923538
57.044725 0.5139295460000001

NAME: Trichlorfon
PRECURSORMZ: 256.929855
PRECURSORTYPE: [M+H]+
INSTRUMENTTYPE: 
INSTRUMENT: 
Authors: 
License: 
SMILES: 
INCHI: 
INCHIKEY: 
COLLISIONENERGY: 
FORMULA: C4H8Cl3O4P
RETENTIONTIME: 4.243683333333333
IONMODE: Positive
MASSBANKACCESSION: 
Links: 
Comment: C2H5O3P CH3O2P ClOP 
Num Peaks: 3
109.004907 1.0
78.994342 0.301900089
82.944805 0.074293263

NAME: Vamidothion
PRECURSORMZ: 288.048763
PRECURSORTYPE: [M+H]+
INSTRUMENTTYPE: 
INSTRUMENT: 
Authors: 
License: 
SMILES: 
INCHI: 
INCHIKEY: 
COLLISIONENERGY: 
FORMULA: C8H18NO4PS2
RETENTIONTIME: 4.28505
IONMODE: Positive
MASSBANKACCESSION: 
Links: 
Comment: C2H3NO C3H7N C4H7NO 
Num Peaks: 3
58.02874 1.0
58.065126 0.461795181
86.06004 0.404090405

