NAME: Methamidophos
EXACTMASS: 141.0013364752
FORMULA: C2H8NO2PS
RETENTIONTIME: 1.9663833333333334
IONMODE: Positive
Num Peaks: 3
94.005241 1.0
124.982063 0.310731441
63.994677 0.30699414

NAME: Pymetrozin
EXACTMASS: 217.0963603509
FORMULA: C10H11N5O
RETENTIONTIME: 2.4632833333333335
IONMODE: Positive
Num Peaks: 3
105.044725 1.0
78.033826 0.077665567
79.041651 0.064585663

NAME: Sulfadiazole
EXACTMASS: 264.03508284279997
FORMULA: C7H12N4O3S2
RETENTIONTIME: 4.444283333333333
IONMODE: Positive
Num Peaks: 3
208.020895 1.0
161.97903 0.688923538
57.044725 0.513929546

NAME: Trichlorfon
EXACTMASS: 255.9225797852
FORMULA: C4H8Cl3O4P
RETENTIONTIME: 4.243683333333333
IONMODE: Positive
Num Peaks: 3
109.004907 1.0
78.994342 0.301900089
82.944805 0.074293263

NAME: Vamidothion
EXACTMASS: 287.04148752419997
FORMULA: C8H18NO4PS2
RETENTIONTIME: 4.28505
IONMODE: Positive
Num Peaks: 3
58.02874 1.0
58.065126 0.461795181
86.06004 0.404090405

